language Essence 1.3

letting network be
        mset({1, 2, 3, 4, 5, 6, 7, 8, 9, 10, 11, 12, 13, 14, 15, 16, 17, 18, 19, 20, 21},
             {1, 2, 3, 4, 5, 6, 7, 8, 9, 10, 11, 12, 13, 14, 15, 16, 17, 18, 19, 20, 21, 22},
             {1, 2, 3, 4, 5, 6, 7, 8, 9, 10, 11, 12, 13, 14, 15, 16, 17, 18, 19, 20, 21, 23},
             {1, 2, 3, 4, 5, 6, 7, 8, 9, 10, 11, 12, 13, 14, 15, 16, 17, 18, 19, 20, 21, 24},
             {1, 2, 3, 4, 5, 6, 7, 8, 9, 10, 11, 12, 13, 14, 15, 16, 17, 18, 19, 20, 21, 25},
             {1, 2, 3, 4, 5, 6, 7, 8, 9, 10, 11, 12, 13, 14, 15, 16, 17, 18, 19, 20, 21, 26},
             {1, 2, 3, 4, 5, 6, 7, 8, 9, 10, 11, 12, 13, 14, 15, 16, 17, 18, 19, 20, 21, 27},
             {1, 2, 3, 4, 5, 6, 7, 8, 9, 10, 11, 12, 13, 14, 15, 16, 17, 18, 19, 20, 21, 28},
             {1, 2, 3, 4, 5, 6, 7, 8, 9, 10, 11, 12, 13, 14, 15, 16, 17, 18, 19, 20, 21, 29},
             {1, 2, 3, 4, 5, 6, 7, 8, 9, 10, 11, 12, 13, 14, 15, 16, 17, 18, 19, 20, 21, 30},
             {1, 2, 3, 4, 5, 6, 7, 8, 9, 10, 11, 12, 13, 14, 15, 16, 17, 18, 19, 20, 22},
             {1, 2, 3, 4, 5, 6, 7, 8, 9, 10, 11, 12, 13, 14, 15, 16, 17, 18, 19, 20, 22, 23},
             {1, 2, 3, 4, 5, 6, 7, 8, 9, 10, 11, 12, 13, 14, 15, 16, 17, 18, 19, 20, 22, 24},
             {1, 2, 3, 4, 5, 6, 7, 8, 9, 10, 11, 12, 13, 14, 15, 16, 17, 18, 19, 20, 22, 25},
             {1, 2, 3, 4, 5, 6, 7, 8, 9, 10, 11, 12, 13, 14, 15, 16, 17, 18, 19, 20, 22, 26},
             {1, 2, 3, 4, 5, 6, 7, 8, 9, 10, 11, 12, 13, 14, 15, 16, 17, 18, 19, 20, 22, 27},
             {1, 2, 3, 4, 5, 6, 7, 8, 9, 10, 11, 12, 13, 14, 15, 16, 17, 18, 19, 20, 22, 28},
             {1, 2, 3, 4, 5, 6, 7, 8, 9, 10, 11, 12, 13, 14, 15, 16, 17, 18, 19, 20, 22, 29},
             {1, 2, 3, 4, 5, 6, 7, 8, 9, 10, 11, 12, 13, 14, 15, 16, 17, 18, 19, 20, 22, 30},
             {1, 2, 3, 4, 5, 6, 7, 8, 9, 10, 11, 12, 13, 14, 15, 16, 17, 18, 19, 20, 23, 24},
             {1, 2, 3, 4, 5, 6, 7, 8, 9, 10, 11, 12, 13, 14, 15, 16, 17, 18, 19, 20, 23, 25},
             {1, 2, 3, 4, 5, 6, 7, 8, 9, 10, 23, 24, 25, 26, 27, 28, 29, 30})
$ Visualisation for network
$  1  2  3  4  5  6  7  8  9 10 11 12 13 14 15 16 17 18 19 20 21
$  1  2  3  4  5  6  7  8  9 10 11 12 13 14 15 16 17 18 19 20 21 22
$  1  2  3  4  5  6  7  8  9 10 11 12 13 14 15 16 17 18 19 20 21 23
$  1  2  3  4  5  6  7  8  9 10 11 12 13 14 15 16 17 18 19 20 21 24
$  1  2  3  4  5  6  7  8  9 10 11 12 13 14 15 16 17 18 19 20 21 25
$  1  2  3  4  5  6  7  8  9 10 11 12 13 14 15 16 17 18 19 20 21 26
$  1  2  3  4  5  6  7  8  9 10 11 12 13 14 15 16 17 18 19 20 21 27
$  1  2  3  4  5  6  7  8  9 10 11 12 13 14 15 16 17 18 19 20 21 28
$  1  2  3  4  5  6  7  8  9 10 11 12 13 14 15 16 17 18 19 20 21 29
$  1  2  3  4  5  6  7  8  9 10 11 12 13 14 15 16 17 18 19 20 21 30
$  1  2  3  4  5  6  7  8  9 10 11 12 13 14 15 16 17 18 19 20 22
$  1  2  3  4  5  6  7  8  9 10 11 12 13 14 15 16 17 18 19 20 22 23
$  1  2  3  4  5  6  7  8  9 10 11 12 13 14 15 16 17 18 19 20 22 24
$  1  2  3  4  5  6  7  8  9 10 11 12 13 14 15 16 17 18 19 20 22 25
$  1  2  3  4  5  6  7  8  9 10 11 12 13 14 15 16 17 18 19 20 22 26
$  1  2  3  4  5  6  7  8  9 10 11 12 13 14 15 16 17 18 19 20 22 27
$  1  2  3  4  5  6  7  8  9 10 11 12 13 14 15 16 17 18 19 20 22 28
$  1  2  3  4  5  6  7  8  9 10 11 12 13 14 15 16 17 18 19 20 22 29
$  1  2  3  4  5  6  7  8  9 10 11 12 13 14 15 16 17 18 19 20 22 30
$  1  2  3  4  5  6  7  8  9 10 11 12 13 14 15 16 17 18 19 20 23 24
$  1  2  3  4  5  6  7  8  9 10 11 12 13 14 15 16 17 18 19 20 23 25
$  1  2  3  4  5  6  7  8  9 10 23 24 25 26 27 28 29 30

